=obj=                -179.25
C0001                5
C0002                0
C0003                0
C0004                0
C0005                0
C0006                0
C0007                2
C0008                0
C0009                0
C0010                0
C0011                0
C0012                0
C0013                0
C0014                5.5
C0015                0
C0016                0
C0017                0
C0018                0
C0019                0
C0020                0
C0021                0
C0022                3.75
C0023                0
C0024                0
C0025                3.25
C0026                0
C0027                0
C0028                0
C0029                0
C0030                0
C0031                3.75
C0032                0
C0033                0
C0034                3.25
C0035                0
C0036                0
C0037                0
C0038                0
C0039                0
C0040                0
C0041                0
C0042                2
C0043                0
C0044                0
C0045                5
C0046                0
C0047                0
C0048                0
C0049                0
C0050                0
C0051                2
C0052                0
C0053                0
C0054                5
C0055                0
C0056                1
C0057                6
C0058                0
C0059                0
C0060                0
C0061                0
C0062                0
C0063                0
C0064                0
C0065                0.75
C0066                6
C0067                0
C0068                0.25
C0069                0
C0070                0
C0071                0
C0072                0
C0073                5
C0074                0
C0075                0
C0076                2
C0077                0
C0078                0
C0079                0
C0080                0
C0081                0
C0082                0
C0083                1
C0084                0
C0085                0
C0086                0
C0087                0
C0088                0
C0089                6
C0090                0
C0091                0
C0092                0
C0093                0
C0094                0
C0095                0
C0096                6
C0097                1
C0098                0
C0099                0
C0100                1
C0101                0
C0102                0
C0103                0
C0104                6
C0105                0
C0106                0
C0107                0
C0108                0
C0109                0
C0110                0
C0111                0
C0112                0
C0113                0
C0114                0
C0115                0
C0116                6
C0117                1
C0118                5
C0119                0
C0120                0
C0121                0
C0122                0
C0123                2
C0124                0
C0125                0
C0126                0
C0127                1
C0128                0
C0129                0
C0130                0
C0131                0
C0132                2
C0133                2.75
C0134                0
C0135                0
C0136                0
C0137                0.25
C0138                0
C0139                0
C0140                0.25
C0141                0
C0142                0
C0143                6
C0144                0.5
C0145                0
C0146                0.25
C0147                0
C0148                0
C0149                0.25
C0150                0
C0151                0
C0152                6
C0153                0.5
C0154                0
C0155                4.75
C0156                0
C0157                2.25
C0158                0
C0159                0
C0160                0
C0161                0
C0162                0
C0163                0
C0164                0
C0165                0
C0166                6
C0167                0
C0168                0
C0169                1
C0170                0
C0171                0
C0172                0
C0173                0
C0174                0
C0175                0
C0176                3
C0177                4
C0178                0
C0179                0
C0180                0
C0181                1
C0182                0
C0183                0
C0184                0
C0185                6
C0186                0
C0187                0
C0188                0
C0189                0
C0190                0
C0191                0
C0192                0
C0193                0
C0194                2
C0195                0
C0196                5
C0197                0
C0198                0
C0199                0
C0200                0
C0201                0
C0202                0
C0203                0
C0204                1
C0205                6
C0206                0
C0207                0
C0208                1
C0209                0
C0210                0
C0211                0
C0212                0
C0213                0
C0214                0
C0215                6
C0216                0
C0217                0
C0218                0
C0219                0
C0220                0
C0221                0
C0222                0
C0223                1
C0224                6
C0225                0
C0226                1
C0227                0
C0228                0
C0229                0
C0230                0
C0231                6
C0232                0
C0233                0
C0234                0
C0235                1
C0236                1
C0237                1
C0238                1
C0239                0
C0240                0
C0241                1
C0242                0
C0243                0
C0244                0
C0245                0
C0246                0
C0247                0
C0248                1
C0249                0
C0250                0
C0251                0
C0252                0
C0253                0
C0254                0
C0255                0
C0256                1
C0257                0
C0258                0
C0259                1
C0260                0
C0261                0
C0262                0
C0263                1
C0264                1
C0265                1
C0266                0
C0267                0
C0268                1
C0269                0
C0270                0
C0271                0
C0272                0
C0273                0
C0274                0
C0275                0
C0276                1
C0277                0
C0278                1
C0279                1
C0280                0
C0281                0
C0282                0
C0283                0
C0284                1
C0285                1
C0286                0
C0287                0
C0288                1
C0289                0
C0290                1
C0291                1
C0292                1
C0293                1
C0294                0
C0295                0
C0296                0
C0297                0
C0298                0
C0299                1
C0300                1
C0301                0
C0302                1
C0303                0
C0304                0
C0305                0
C0306                0
C0307                1
C0308                0
C0309                0
C0310                1
C0311                0
C0312                0
C0313                0
C0314                0
C0315                0
C0316                0
C0317                1
C0318                0
C0319                0
C0320                0
C0321                0
C0322                0
C0323                1
C0324                0
C0325                0
C0326                0
C0327                0
C0328                0
C0329                0
C0330                1
C0331                1
C0332                0
C0333                0
C0334                1
C0335                1
C0336                1
C0337                1
C0338                1
C0339                0
C0340                0
C0341                1
C0342                1
C0343                0
C0344                0
C0345                0
C0346                0
C0347                0
C0348                0
C0349                0
C0350                1
C0351                1
C0352                1
C0353                0
C0354                0
C0355                0
C0356                0
C0357                1
C0358                0
C0359                0
C0360                0
C0361                1
C0362                0
C0363                0
C0364                0
C0365                0
C0366                1
C0367                1
C0368                0
C0369                0
C0370                0
C0371                1
C0372                0
C0373                0
C0374                1
C0375                0
C0376                0
C0377                1
C0378                1
C0379                0
C0380                1
C0381                0
C0382                0
C0383                1
C0384                0
C0385                0
C0386                1
C0387                1
C0388                0
C0389                1
C0390                0
C0391                1
C0392                0
C0393                0
C0394                0
C0395                0
C0396                0
C0397                1
C0398                0
C0399                1
C0400                1
C0401                0
C0402                0
C0403                1
C0404                0
C0405                0
C0406                0
C0407                0
C0408                0
C0409                0
C0410                1
C0411                1
C0412                0
C0413                0
C0414                0
C0415                1
C0416                1
C0417                1
C0418                1
C0419                1
C0420                1
C0421                0
C0422                0
C0423                1
C0424                0
C0425                1
C0426                1
C0427                1
C0428                1
C0429                0
C0430                1
C0431                1
C0432                1
C0433                0
C0434                1
C0435                1
C0436                1
C0437                1
C0438                1
C0439                1
C0440                0
C0441                1
C0442                1
C0443                0
C0444                0
C0445                0
C0446                0
C0447                0
C0448                0
C0449                1
C0450                0
C0451                0
C0452                0
C0453                0
C0454                0
C0455                0
C0456                0
C0457                1
C0458                1
C0459                0
C0460                1
C0461                0
C0462                0
C0463                0
C0464                0
C0465                1
C0466                0
C0467                0
C0468                0
